&control
calculation='scf',
restart_mode='from_scratch',
pseudo_dir = './',
outdir='./',
prefix = 'scf_',
disk_io = 'none'
/
&system
ibrav=0, celldm(1)=1, ecutwfc=40, ecutrho = 300,
occupations = 'smearing', smearing = 'gauss', degauss = 0.002, nosym=.false.,
nat=512 ntyp=2
/
&electrons
conv_thr =  1.0d-8,
diago_thr_init = 1.0d-4,
mixing_beta = 0.7,
electron_maxstep = 10
/
ATOMIC_SPECIES
Si 0.0 Si.pbe-n-rrkjus_psl.0.1.UPF
Ge 0.0 Ge.pbe-dn-rrkjus_psl.0.3.1.UPF
CELL_PARAMETERS
       41.05014300        0.00000000        0.00000000
        0.00000000       41.05014300        0.00000000
        0.00000000        0.00000000       41.05014300
ATOMIC_POSITIONS (crystal)
Si          0.50000000         0.50000000         0.50000000
Si          0.50000000         0.50000000         0.75000000
Si          0.50000000         0.50000000         0.00000000
Si          0.50000000         0.50000000         0.25000000
Si          0.50000000         0.75000000         0.50000000
Si          0.50000000         0.75000000         0.75000000
Si          0.50000000         0.75000000         0.00000000
Si          0.50000000         0.75000000         0.25000000
Si          0.50000000         0.00000000         0.50000000
Si          0.50000000         0.00000000         0.75000000
Si          0.50000000         0.00000000         0.00000000
Si          0.50000000         0.00000000         0.25000000
Si          0.50000000         0.25000000         0.50000000
Si          0.50000000         0.25000000         0.75000000
Si          0.50000000         0.25000000         0.00000000
Si          0.50000000         0.25000000         0.25000000
Si          0.75000000         0.50000000         0.50000000
Si          0.75000000         0.50000000         0.75000000
Si          0.75000000         0.50000000         0.00000000
Si          0.75000000         0.50000000         0.25000000
Si          0.75000000         0.75000000         0.50000000
Si          0.75000000         0.75000000         0.75000000
Si          0.75000000         0.75000000         0.00000000
Si          0.75000000         0.75000000         0.25000000
Si          0.75000000         0.00000000         0.50000000
Si          0.75000000         0.00000000         0.75000000
Si          0.75000000         0.00000000         0.00000000
Si          0.75000000         0.00000000         0.25000000
Si          0.75000000         0.25000000         0.50000000
Si          0.75000000         0.25000000         0.75000000
Si          0.75000000         0.25000000         0.00000000
Si          0.75000000         0.25000000         0.25000000
Si          0.00000000         0.50000000         0.50000000
Si          0.00000000         0.50000000         0.75000000
Si          0.00000000         0.50000000         0.00000000
Si          0.00000000         0.50000000         0.25000000
Si          0.00000000         0.75000000         0.50000000
Si          0.00000000         0.75000000         0.75000000
Si          0.00000000         0.75000000         0.00000000
Si          0.00000000         0.75000000         0.25000000
Si          0.00000000         0.00000000         0.50000000
Si          0.00000000         0.00000000         0.75000000
Si          0.00000000         0.00000000         0.25000000
Si          0.00000000         0.25000000         0.50000000
Si          0.00000000         0.25000000         0.75000000
Si          0.00000000         0.25000000         0.00000000
Si          0.00000000         0.25000000         0.25000000
Si          0.25000000         0.50000000         0.50000000
Si          0.25000000         0.50000000         0.75000000
Si          0.25000000         0.50000000         0.00000000
Si          0.25000000         0.50000000         0.25000000
Si          0.25000000         0.75000000         0.50000000
Si          0.25000000         0.75000000         0.75000000
Si          0.25000000         0.75000000         0.00000000
Si          0.25000000         0.75000000         0.25000000
Si          0.25000000         0.00000000         0.50000000
Si          0.25000000         0.00000000         0.75000000
Si          0.25000000         0.00000000         0.00000000
Si          0.25000000         0.00000000         0.25000000
Si          0.25000000         0.25000000         0.50000000
Si          0.25000000         0.25000000         0.75000000
Si          0.25000000         0.25000000         0.00000000
Si          0.25000000         0.25000000         0.25000000
Si          0.50000000         0.62500000         0.62500000
Si          0.50000000         0.62500000         0.87500000
Si          0.50000000         0.62500000         0.12500000
Si          0.50000000         0.62500000         0.37500000
Si          0.50000000         0.87500000         0.62500000
Si          0.50000000         0.87500000         0.87500000
Si          0.50000000         0.87500000         0.12500000
Si          0.50000000         0.87500000         0.37500000
Si          0.50000000         0.12500000         0.62500000
Si          0.50000000         0.12500000         0.87500000
Si          0.50000000         0.12500000         0.12500000
Si          0.50000000         0.12500000         0.37500000
Si          0.50000000         0.37500000         0.62500000
Si          0.50000000         0.37500000         0.87500000
Si          0.50000000         0.37500000         0.12500000
Si          0.50000000         0.37500000         0.37500000
Si          0.75000000         0.62500000         0.62500000
Si          0.75000000         0.62500000         0.87500000
Si          0.75000000         0.62500000         0.12500000
Si          0.75000000         0.62500000         0.37500000
Si          0.75000000         0.87500000         0.62500000
Si          0.75000000         0.87500000         0.87500000
Si          0.75000000         0.87500000         0.12500000
Si          0.75000000         0.87500000         0.37500000
Si          0.75000000         0.12500000         0.62500000
Si          0.75000000         0.12500000         0.87500000
Si          0.75000000         0.12500000         0.12500000
Si          0.75000000         0.12500000         0.37500000
Si          0.75000000         0.37500000         0.62500000
Si          0.75000000         0.37500000         0.87500000
Si          0.75000000         0.37500000         0.12500000
Si          0.75000000         0.37500000         0.37500000
Si          0.00000000         0.62500000         0.62500000
Si          0.00000000         0.62500000         0.87500000
Si          0.00000000         0.62500000         0.12500000
Si          0.00000000         0.62500000         0.37500000
Si          0.00000000         0.87500000         0.62500000
Si          0.00000000         0.87500000         0.87500000
Si          0.00000000         0.87500000         0.12500000
Si          0.00000000         0.87500000         0.37500000
Si          0.00000000         0.12500000         0.62500000
Si          0.00000000         0.12500000         0.87500000
Si          0.00000000         0.12500000         0.12500000
Si          0.00000000         0.12500000         0.37500000
Si          0.00000000         0.37500000         0.62500000
Si          0.00000000         0.37500000         0.87500000
Si          0.00000000         0.37500000         0.12500000
Si          0.00000000         0.37500000         0.37500000
Si          0.25000000         0.62500000         0.62500000
Si          0.25000000         0.62500000         0.87500000
Si          0.25000000         0.62500000         0.12500000
Si          0.25000000         0.62500000         0.37500000
Si          0.25000000         0.87500000         0.62500000
Si          0.25000000         0.87500000         0.87500000
Si          0.25000000         0.87500000         0.12500000
Si          0.25000000         0.87500000         0.37500000
Si          0.25000000         0.12500000         0.62500000
Si          0.25000000         0.12500000         0.87500000
Si          0.25000000         0.12500000         0.12500000
Si          0.25000000         0.12500000         0.37500000
Si          0.25000000         0.37500000         0.62500000
Si          0.25000000         0.37500000         0.87500000
Si          0.25000000         0.37500000         0.12500000
Si          0.25000000         0.37500000         0.37500000
Si          0.62500000         0.50000000         0.62500000
Si          0.62500000         0.50000000         0.87500000
Si          0.62500000         0.50000000         0.12500000
Si          0.62500000         0.50000000         0.37500000
Si          0.62500000         0.75000000         0.62500000
Si          0.62500000         0.75000000         0.87500000
Si          0.62500000         0.75000000         0.12500000
Si          0.62500000         0.75000000         0.37500000
Si          0.62500000         0.00000000         0.62500000
Si          0.62500000         0.00000000         0.87500000
Si          0.62500000         0.00000000         0.12500000
Si          0.62500000         0.00000000         0.37500000
Si          0.62500000         0.25000000         0.62500000
Si          0.62500000         0.25000000         0.87500000
Si          0.62500000         0.25000000         0.12500000
Si          0.62500000         0.25000000         0.37500000
Si          0.87500000         0.50000000         0.62500000
Si          0.87500000         0.50000000         0.87500000
Si          0.87500000         0.50000000         0.12500000
Si          0.87500000         0.50000000         0.37500000
Si          0.87500000         0.75000000         0.62500000
Si          0.87500000         0.75000000         0.87500000
Si          0.87500000         0.75000000         0.12500000
Si          0.87500000         0.75000000         0.37500000
Si          0.87500000         0.00000000         0.62500000
Si          0.87500000         0.00000000         0.87500000
Si          0.87500000         0.00000000         0.12500000
Si          0.87500000         0.00000000         0.37500000
Si          0.87500000         0.25000000         0.62500000
Si          0.87500000         0.25000000         0.87500000
Si          0.87500000         0.25000000         0.12500000
Si          0.87500000         0.25000000         0.37500000
Si          0.12500000         0.50000000         0.62500000
Si          0.12500000         0.50000000         0.87500000
Si          0.12500000         0.50000000         0.12500000
Si          0.12500000         0.50000000         0.37500000
Si          0.12500000         0.75000000         0.62500000
Si          0.12500000         0.75000000         0.87500000
Si          0.12500000         0.75000000         0.12500000
Si          0.12500000         0.75000000         0.37500000
Si          0.12500000         0.00000000         0.62500000
Si          0.12500000         0.00000000         0.87500000
Si          0.12500000         0.00000000         0.12500000
Si          0.12500000         0.00000000         0.37500000
Si          0.12500000         0.25000000         0.62500000
Si          0.12500000         0.25000000         0.87500000
Si          0.12500000         0.25000000         0.12500000
Si          0.12500000         0.25000000         0.37500000
Si          0.37500000         0.50000000         0.62500000
Si          0.37500000         0.50000000         0.87500000
Si          0.37500000         0.50000000         0.12500000
Si          0.37500000         0.50000000         0.37500000
Si          0.37500000         0.75000000         0.62500000
Si          0.37500000         0.75000000         0.87500000
Si          0.37500000         0.75000000         0.12500000
Si          0.37500000         0.75000000         0.37500000
Si          0.37500000         0.00000000         0.62500000
Si          0.37500000         0.00000000         0.87500000
Si          0.37500000         0.00000000         0.12500000
Si          0.37500000         0.00000000         0.37500000
Si          0.37500000         0.25000000         0.62500000
Si          0.37500000         0.25000000         0.87500000
Si          0.37500000         0.25000000         0.12500000
Si          0.37500000         0.25000000         0.37500000
Si          0.62500000         0.62500000         0.50000000
Si          0.62500000         0.62500000         0.75000000
Si          0.62500000         0.62500000         0.00000000
Si          0.62500000         0.62500000         0.25000000
Si          0.62500000         0.87500000         0.50000000
Si          0.62500000         0.87500000         0.75000000
Si          0.62500000         0.87500000         0.00000000
Si          0.62500000         0.87500000         0.25000000
Si          0.62500000         0.12500000         0.50000000
Si          0.62500000         0.12500000         0.75000000
Si          0.62500000         0.12500000         0.00000000
Si          0.62500000         0.12500000         0.25000000
Si          0.62500000         0.37500000         0.50000000
Si          0.62500000         0.37500000         0.75000000
Si          0.62500000         0.37500000         0.00000000
Si          0.62500000         0.37500000         0.25000000
Si          0.87500000         0.62500000         0.50000000
Si          0.87500000         0.62500000         0.75000000
Si          0.87500000         0.62500000         0.00000000
Si          0.87500000         0.62500000         0.25000000
Si          0.87500000         0.87500000         0.50000000
Si          0.87500000         0.87500000         0.75000000
Si          0.87500000         0.87500000         0.00000000
Si          0.87500000         0.87500000         0.25000000
Si          0.87500000         0.12500000         0.50000000
Si          0.87500000         0.12500000         0.75000000
Si          0.87500000         0.12500000         0.00000000
Si          0.87500000         0.12500000         0.25000000
Si          0.87500000         0.37500000         0.50000000
Si          0.87500000         0.37500000         0.75000000
Si          0.87500000         0.37500000         0.00000000
Si          0.87500000         0.37500000         0.25000000
Si          0.12500000         0.62500000         0.50000000
Si          0.12500000         0.62500000         0.75000000
Si          0.12500000         0.62500000         0.00000000
Si          0.12500000         0.62500000         0.25000000
Si          0.12500000         0.87500000         0.50000000
Si          0.12500000         0.87500000         0.75000000
Si          0.12500000         0.87500000         0.00000000
Si          0.12500000         0.87500000         0.25000000
Si          0.12500000         0.12500000         0.50000000
Si          0.12500000         0.12500000         0.75000000
Si          0.12500000         0.12500000         0.00000000
Si          0.12500000         0.12500000         0.25000000
Si          0.12500000         0.37500000         0.50000000
Si          0.12500000         0.37500000         0.75000000
Si          0.12500000         0.37500000         0.00000000
Si          0.12500000         0.37500000         0.25000000
Si          0.37500000         0.62500000         0.50000000
Si          0.37500000         0.62500000         0.75000000
Si          0.37500000         0.62500000         0.00000000
Si          0.37500000         0.62500000         0.25000000
Si          0.37500000         0.87500000         0.50000000
Si          0.37500000         0.87500000         0.75000000
Si          0.37500000         0.87500000         0.00000000
Si          0.37500000         0.87500000         0.25000000
Si          0.37500000         0.12500000         0.50000000
Si          0.37500000         0.12500000         0.75000000
Si          0.37500000         0.12500000         0.00000000
Si          0.37500000         0.12500000         0.25000000
Si          0.37500000         0.37500000         0.50000000
Si          0.37500000         0.37500000         0.75000000
Si          0.37500000         0.37500000         0.00000000
Si          0.37500000         0.37500000         0.25000000
Si          0.68750000         0.68750000         0.56250000
Si          0.68750000         0.68750000         0.81250000
Si          0.68750000         0.68750000         0.06250000
Si          0.68750000         0.68750000         0.31250000
Si          0.68750000         0.93750000         0.56250000
Si          0.68750000         0.93750000         0.81250000
Si          0.68750000         0.93750000         0.06250000
Si          0.68750000         0.93750000         0.31250000
Si          0.68750000         0.18750000         0.56250000
Si          0.68750000         0.18750000         0.81250000
Si          0.68750000         0.18750000         0.06250000
Si          0.68750000         0.18750000         0.31250000
Si          0.68750000         0.43750000         0.56250000
Si          0.68750000         0.43750000         0.81250000
Si          0.68750000         0.43750000         0.06250000
Si          0.68750000         0.43750000         0.31250000
Si          0.93750000         0.68750000         0.56250000
Si          0.93750000         0.68750000         0.81250000
Si          0.93750000         0.68750000         0.06250000
Si          0.93750000         0.68750000         0.31250000
Si          0.93750000         0.93750000         0.56250000
Si          0.93750000         0.93750000         0.81250000
Si          0.93750000         0.93750000         0.06250000
Si          0.93750000         0.93750000         0.31250000
Si          0.93750000         0.18750000         0.56250000
Si          0.93750000         0.18750000         0.81250000
Si          0.93750000         0.18750000         0.06250000
Si          0.93750000         0.18750000         0.31250000
Si          0.93750000         0.43750000         0.56250000
Si          0.93750000         0.43750000         0.81250000
Si          0.93750000         0.43750000         0.06250000
Si          0.93750000         0.43750000         0.31250000
Si          0.18750000         0.68750000         0.56250000
Si          0.18750000         0.68750000         0.81250000
Si          0.18750000         0.68750000         0.06250000
Si          0.18750000         0.68750000         0.31250000
Si          0.18750000         0.93750000         0.56250000
Si          0.18750000         0.93750000         0.81250000
Si          0.18750000         0.93750000         0.06250000
Si          0.18750000         0.93750000         0.31250000
Si          0.18750000         0.18750000         0.56250000
Si          0.18750000         0.18750000         0.81250000
Si          0.18750000         0.18750000         0.06250000
Si          0.18750000         0.18750000         0.31250000
Si          0.18750000         0.43750000         0.56250000
Si          0.18750000         0.43750000         0.81250000
Si          0.18750000         0.43750000         0.06250000
Si          0.18750000         0.43750000         0.31250000
Si          0.43750000         0.68750000         0.56250000
Si          0.43750000         0.68750000         0.81250000
Si          0.43750000         0.68750000         0.06250000
Si          0.43750000         0.68750000         0.31250000
Si          0.43750000         0.93750000         0.56250000
Si          0.43750000         0.93750000         0.81250000
Si          0.43750000         0.93750000         0.06250000
Si          0.43750000         0.93750000         0.31250000
Si          0.43750000         0.18750000         0.56250000
Si          0.43750000         0.18750000         0.81250000
Si          0.43750000         0.18750000         0.06250000
Si          0.43750000         0.18750000         0.31250000
Si          0.43750000         0.43750000         0.56250000
Si          0.43750000         0.43750000         0.81250000
Si          0.43750000         0.43750000         0.06250000
Si          0.43750000         0.43750000         0.31250000
Si          0.68750000         0.56250000         0.68750000
Si          0.68750000         0.56250000         0.93750000
Si          0.68750000         0.56250000         0.18750000
Si          0.68750000         0.56250000         0.43750000
Si          0.68750000         0.81250000         0.68750000
Si          0.68750000         0.81250000         0.93750000
Si          0.68750000         0.81250000         0.18750000
Si          0.68750000         0.81250000         0.43750000
Si          0.68750000         0.06250000         0.68750000
Si          0.68750000         0.06250000         0.93750000
Si          0.68750000         0.06250000         0.18750000
Si          0.68750000         0.06250000         0.43750000
Si          0.68750000         0.31250000         0.68750000
Si          0.68750000         0.31250000         0.93750000
Si          0.68750000         0.31250000         0.18750000
Si          0.68750000         0.31250000         0.43750000
Si          0.93750000         0.56250000         0.68750000
Si          0.93750000         0.56250000         0.93750000
Si          0.93750000         0.56250000         0.18750000
Si          0.93750000         0.56250000         0.43750000
Si          0.93750000         0.81250000         0.68750000
Si          0.93750000         0.81250000         0.93750000
Si          0.93750000         0.81250000         0.18750000
Si          0.93750000         0.81250000         0.43750000
Si          0.93750000         0.06250000         0.68750000
Si          0.93750000         0.06250000         0.93750000
Si          0.93750000         0.06250000         0.18750000
Si          0.93750000         0.06250000         0.43750000
Si          0.93750000         0.31250000         0.68750000
Si          0.93750000         0.31250000         0.93750000
Si          0.93750000         0.31250000         0.18750000
Si          0.93750000         0.31250000         0.43750000
Si          0.18750000         0.56250000         0.68750000
Si          0.18750000         0.56250000         0.93750000
Si          0.18750000         0.56250000         0.18750000
Si          0.18750000         0.56250000         0.43750000
Si          0.18750000         0.81250000         0.68750000
Si          0.18750000         0.81250000         0.93750000
Si          0.18750000         0.81250000         0.18750000
Si          0.18750000         0.81250000         0.43750000
Si          0.18750000         0.06250000         0.68750000
Si          0.18750000         0.06250000         0.93750000
Si          0.18750000         0.06250000         0.18750000
Si          0.18750000         0.06250000         0.43750000
Si          0.18750000         0.31250000         0.68750000
Si          0.18750000         0.31250000         0.93750000
Si          0.18750000         0.31250000         0.18750000
Si          0.18750000         0.31250000         0.43750000
Si          0.43750000         0.56250000         0.68750000
Si          0.43750000         0.56250000         0.93750000
Si          0.43750000         0.56250000         0.18750000
Si          0.43750000         0.56250000         0.43750000
Si          0.43750000         0.81250000         0.68750000
Si          0.43750000         0.81250000         0.93750000
Si          0.43750000         0.81250000         0.18750000
Si          0.43750000         0.81250000         0.43750000
Si          0.43750000         0.06250000         0.68750000
Si          0.43750000         0.06250000         0.93750000
Si          0.43750000         0.06250000         0.18750000
Si          0.43750000         0.06250000         0.43750000
Si          0.43750000         0.31250000         0.68750000
Si          0.43750000         0.31250000         0.93750000
Si          0.43750000         0.31250000         0.18750000
Si          0.43750000         0.31250000         0.43750000
Si          0.56250000         0.68750000         0.68750000
Si          0.56250000         0.68750000         0.93750000
Si          0.56250000         0.68750000         0.18750000
Si          0.56250000         0.68750000         0.43750000
Si          0.56250000         0.93750000         0.68750000
Si          0.56250000         0.93750000         0.93750000
Si          0.56250000         0.93750000         0.18750000
Si          0.56250000         0.93750000         0.43750000
Si          0.56250000         0.18750000         0.68750000
Si          0.56250000         0.18750000         0.93750000
Si          0.56250000         0.18750000         0.18750000
Si          0.56250000         0.18750000         0.43750000
Si          0.56250000         0.43750000         0.68750000
Si          0.56250000         0.43750000         0.93750000
Si          0.56250000         0.43750000         0.18750000
Si          0.56250000         0.43750000         0.43750000
Si          0.81250000         0.68750000         0.68750000
Si          0.81250000         0.68750000         0.93750000
Si          0.81250000         0.68750000         0.18750000
Si          0.81250000         0.68750000         0.43750000
Si          0.81250000         0.93750000         0.68750000
Si          0.81250000         0.93750000         0.93750000
Si          0.81250000         0.93750000         0.18750000
Si          0.81250000         0.93750000         0.43750000
Si          0.81250000         0.18750000         0.68750000
Si          0.81250000         0.18750000         0.93750000
Si          0.81250000         0.18750000         0.18750000
Si          0.81250000         0.18750000         0.43750000
Si          0.81250000         0.43750000         0.68750000
Si          0.81250000         0.43750000         0.93750000
Si          0.81250000         0.43750000         0.18750000
Si          0.81250000         0.43750000         0.43750000
Si          0.06250000         0.68750000         0.68750000
Si          0.06250000         0.68750000         0.93750000
Si          0.06250000         0.68750000         0.18750000
Si          0.06250000         0.68750000         0.43750000
Si          0.06250000         0.93750000         0.68750000
Si          0.06250000         0.93750000         0.93750000
Si          0.06250000         0.93750000         0.18750000
Si          0.06250000         0.93750000         0.43750000
Si          0.06250000         0.18750000         0.68750000
Si          0.06250000         0.18750000         0.93750000
Si          0.06250000         0.18750000         0.18750000
Si          0.06250000         0.18750000         0.43750000
Si          0.06250000         0.43750000         0.68750000
Si          0.06250000         0.43750000         0.93750000
Si          0.06250000         0.43750000         0.18750000
Si          0.06250000         0.43750000         0.43750000
Si          0.31250000         0.68750000         0.68750000
Si          0.31250000         0.68750000         0.93750000
Si          0.31250000         0.68750000         0.18750000
Si          0.31250000         0.68750000         0.43750000
Si          0.31250000         0.93750000         0.68750000
Si          0.31250000         0.93750000         0.93750000
Si          0.31250000         0.93750000         0.18750000
Si          0.31250000         0.93750000         0.43750000
Si          0.31250000         0.18750000         0.68750000
Si          0.31250000         0.18750000         0.93750000
Si          0.31250000         0.18750000         0.18750000
Si          0.31250000         0.18750000         0.43750000
Si          0.31250000         0.43750000         0.68750000
Si          0.31250000         0.43750000         0.93750000
Si          0.31250000         0.43750000         0.18750000
Si          0.31250000         0.43750000         0.43750000
Si          0.56250000         0.56250000         0.56250000
Si          0.56250000         0.56250000         0.81250000
Si          0.56250000         0.56250000         0.06250000
Si          0.56250000         0.56250000         0.31250000
Si          0.56250000         0.81250000         0.56250000
Si          0.56250000         0.81250000         0.81250000
Si          0.56250000         0.81250000         0.06250000
Si          0.56250000         0.81250000         0.31250000
Si          0.56250000         0.06250000         0.56250000
Si          0.56250000         0.06250000         0.81250000
Si          0.56250000         0.06250000         0.06250000
Si          0.56250000         0.06250000         0.31250000
Si          0.56250000         0.31250000         0.56250000
Si          0.56250000         0.31250000         0.81250000
Si          0.56250000         0.31250000         0.06250000
Si          0.56250000         0.31250000         0.31250000
Si          0.81250000         0.56250000         0.56250000
Si          0.81250000         0.56250000         0.81250000
Si          0.81250000         0.56250000         0.06250000
Si          0.81250000         0.56250000         0.31250000
Si          0.81250000         0.81250000         0.56250000
Si          0.81250000         0.81250000         0.81250000
Si          0.81250000         0.81250000         0.06250000
Si          0.81250000         0.81250000         0.31250000
Si          0.81250000         0.06250000         0.56250000
Si          0.81250000         0.06250000         0.81250000
Si          0.81250000         0.06250000         0.06250000
Si          0.81250000         0.06250000         0.31250000
Si          0.81250000         0.31250000         0.56250000
Si          0.81250000         0.31250000         0.81250000
Si          0.81250000         0.31250000         0.06250000
Si          0.81250000         0.31250000         0.31250000
Si          0.06250000         0.56250000         0.56250000