 &control
    calculation = 'scf',
    restart_mode='from_scratch',
    prefix='rutile',
    tstress = .true.
    tprnfor = .true.
    pseudo_dir = './',
    outdir='./',
    disk_io='none'
 /
 &system
    ibrav=0,
    nat=  48, ntyp= 2,
    ecutwfc =50.0,
    ecutrho = 738.0,
    input_DFT='PBE',
    occupations='smearing',
    smearing='gaussian',
    degauss=0.00367
 /
 &electrons
    diagonalization='david',
    mixing_beta = 0.7,
    conv_thr =  0.00000367
 /
 &ions
    ion_dynamics='bfgs'
 /
 &cell
    cell_dynamics='bfgs',
    cell_dofree='xyz'
 /

ATOMIC_SPECIES
 Ti 47.867 Ti.pbe-spn-rrkjus_psl.0.3.1.UPF
 O  15.9994 O.pbe-n-rrkjus_psl.0.1.UPF

ATOMIC_POSITIONS crystal
 Ti   0.000000000000000       0.000000000000000       0.000000000000000
 Ti   0.250000000000000       0.250000000000000       0.250000000000000
 Ti   0.500000000000000       0.000000000000000       0.000000000000000
 Ti   0.750000000000000       0.250000000000000       0.250000000000000
 Ti   0.000000000000000       0.500000000000000       0.000000000000000
 Ti   0.250000000000000       0.750000000000000       0.250000000000000
 Ti   0.500000000000000       0.500000000000000       0.000000000000000
 Ti   0.750000000000000       0.750000000000000       0.250000000000000
 Ti   0.000000000000000       0.000000000000000       0.500000000000000
 Ti   0.250000000000000       0.250000000000000       0.750000000000000
 Ti   0.500000000000000       0.000000000000000       0.500000000000000
 Ti   0.750000000000000       0.250000000000000       0.750000000000000
 Ti   0.000000000000000       0.500000000000000       0.500000000000000
 Ti   0.250000000000000       0.750000000000000       0.750000000000000
 Ti   0.500000000000000       0.500000000000000       0.500000000000000
 Ti   0.750000000000000       0.750000000000000       0.750000000000000
 O    0.152500000000000       0.152500000000000       0.000000000000000
 O    0.097500000000000       0.402500000000000       0.250000000000000
 O    0.347500000000000       0.347500000000000       0.000000000000000
 O    0.402500000000000       0.097500000000000       0.250000000000000
 O    0.652500000000000       0.152500000000000       0.000000000000000
 O    0.597500000000000       0.402500000000000       0.250000000000000
 O    0.847500000000000       0.347500000000000       0.000000000000000
 O    0.902500000000000       0.097500000000000       0.250000000000000
 O    0.152500000000000       0.652500000000000       0.000000000000000
 O    0.097500000000000       0.902500000000000       0.250000000000000
 O    0.347500000000000       0.847500000000000       0.000000000000000
 O    0.402500000000000       0.597500000000000       0.250000000000000
 O    0.652500000000000       0.652500000000000       0.000000000000000
 O    0.597500000000000       0.902500000000000       0.250000000000000
 O    0.847500000000000       0.847500000000000       0.000000000000000
 O    0.902500000000000       0.597500000000000       0.250000000000000
 O    0.152500000000000       0.152500000000000       0.500000000000000
 O    0.097500000000000       0.402500000000000       0.750000000000000
 O    0.347500000000000       0.347500000000000       0.500000000000000
 O    0.402500000000000       0.097500000000000       0.750000000000000
 O    0.652500000000000       0.152500000000000       0.500000000000000
 O    0.597500000000000       0.402500000000000       0.750000000000000
 O    0.847500000000000       0.347500000000000       0.500000000000000
 O    0.902500000000000       0.097500000000000       0.750000000000000
 O    0.152500000000000       0.652500000000000       0.500000000000000
 O    0.097500000000000       0.902500000000000       0.750000000000000
 O    0.347500000000000       0.847500000000000       0.500000000000000
 O    0.402500000000000       0.597500000000000       0.750000000000000
 O    0.652500000000000       0.652500000000000       0.500000000000000
 O    0.597500000000000       0.902500000000000       0.750000000000000
 O    0.847500000000000       0.847500000000000       0.500000000000000
 O    0.902500000000000       0.597500000000000       0.750000000000000

K_POINTS automatic
1 1 1 0 0 0

CELL_PARAMETERS angstrom
   9.186000000000000       0.000000000000000       0.000000000000000
   0.000000000000000       9.186000000000000       0.000000000000000
   0.000000000000000       0.000000000000000       5.916000000000000

